language Essence 1.3

letting bot_end be [632, 315, 726, 523, 639; int(1..5)]
letting bot_start be [278, 680, 156, 882, 42; int(1..5)]
letting bots be 5
letting buffer_col be 2
letting buffer_row be 2
letting corridor_size be 1
letting n_shelves_col be 57
letting n_shelves_row be 1
letting shelf_col_size be 2
letting shelf_row_size be 1
